sat
(:max-memory         18.52
 :memory             18.43
 :nlsat-arith-var    2
 :nlsat-atoms        32
 :nlsat-bool-var     1
 :nlsat-clauses      23
 :nlsat-conflicts    7
 :nlsat-decisions    5
 :nlsat-propagations 64
 :nlsat-stages       8
 :num-allocs         101914
 :rlimit-count       15739
 :time               0.01
 :total-time         0.02)
